c SAT Generator for power-law distributed variable frequencies
c -g u -v 20 -c 91 -k 3 -p 2.750000 -b 3.200000 -f /home/schmidt/Devel/ni-kop-sat/data/ensemble/ruf20-91/ruf20-91-874 -u 1 -U 1 -s 899745543
p cnf 20 91
-1 -5 -12 0
3 -10 14 0
-2 -9 -20 0
17 18 -20 0
6 13 -18 0
-1 -6 8 0
4 -9 -10 0
7 -8 9 0
3 8 9 0
3 -4 -9 0
-10 -12 -15 0
-8 -16 17 0
1 5 -17 0
12 15 17 0
-14 19 -20 0
1 6 17 0
5 -6 13 0
-2 8 11 0
-3 -12 14 0
-2 -14 -16 0
6 14 20 0
-5 -12 -20 0
-2 5 13 0
1 -6 11 0
-3 4 13 0
-1 -8 19 0
-1 4 -8 0
13 -15 19 0
-1 -10 13 0
3 4 19 0
5 12 -17 0
7 -8 -10 0
-4 16 -20 0
-3 4 -12 0
1 -15 20 0
14 -17 -19 0
-5 -7 -20 0
-3 -10 13 0
1 -5 14 0
5 -9 12 0
3 11 19 0
8 -11 -19 0
1 10 -16 0
3 -4 -10 0
-7 -9 -15 0
6 -9 -16 0
13 16 -19 0
4 -8 10 0
6 12 17 0
4 6 -9 0
-17 18 -19 0
-9 12 -18 0
2 13 -15 0
-1 11 16 0
-1 -15 17 0
-14 15 -17 0
3 4 18 0
-1 -3 19 0
13 -14 -17 0
3 13 15 0
-3 -8 -17 0
1 -5 -15 0
-13 14 -16 0
-4 -5 6 0
-3 8 12 0
10 -16 18 0
-9 -15 17 0
3 -6 19 0
4 8 -19 0
8 -10 20 0
-5 -10 16 0
1 -6 -20 0
11 -13 -18 0
4 19 -20 0
6 -7 -11 0
3 14 -17 0
6 7 12 0
-9 11 13 0
5 18 19 0
-4 -14 15 0
-4 13 16 0
13 17 -18 0
11 -16 -17 0
3 -8 -15 0
-7 -15 -18 0
7 10 15 0
5 7 -11 0
-3 15 -17 0
-8 -13 18 0
3 -10 18 0
-7 17 -20 0
